
Gurobi 8.1.0 (linux64, Python) logging started Sun Mar  3 16:37:25 2019

Academic license - for non-commercial use only

Gurobi 8.1.0 (linux64, Python) logging started Sun Mar  3 16:39:01 2019

Academic license - for non-commercial use only

Gurobi 8.1.0 (linux64, Python) logging started Sun Mar  3 16:40:32 2019

Academic license - for non-commercial use only

Gurobi 8.1.0 (linux64, Python) logging started Sun Mar  3 16:42:10 2019

Academic license - for non-commercial use only

Gurobi 8.1.0 (linux64, Python) logging started Sun Mar  3 17:00:30 2019

Academic license - for non-commercial use only

Gurobi 8.1.0 (linux64, Python) logging started Sun Mar  3 17:01:50 2019

Academic license - for non-commercial use only

Gurobi 8.1.0 (linux64, Python) logging started Sun Mar  3 17:02:50 2019

Academic license - for non-commercial use only

Gurobi 8.1.0 (linux64, Python) logging started Sun Mar  3 17:03:59 2019

Academic license - for non-commercial use only

Gurobi 8.1.0 (linux64, Python) logging started Sun Mar  3 19:16:41 2019

Academic license - for non-commercial use only

Gurobi 8.1.0 (linux64, Python) logging started Sun Mar  3 19:23:46 2019

Academic license - for non-commercial use only

Gurobi 8.1.0 (linux64, Python) logging started Sun Mar  3 19:23:59 2019

Academic license - for non-commercial use only

Gurobi 8.1.0 (linux64, Python) logging started Sun Mar  3 19:28:06 2019

Academic license - for non-commercial use only

Gurobi 8.1.0 (linux64, Python) logging started Sun Mar  3 19:32:56 2019

Academic license - for non-commercial use only

Gurobi 8.1.0 (linux64, Python) logging started Sun Mar  3 19:34:58 2019

Academic license - for non-commercial use only

Gurobi 8.1.0 (linux64, Python) logging started Sun Mar  3 19:37:08 2019

Academic license - for non-commercial use only

Gurobi 8.1.0 (linux64, Python) logging started Sun Mar  3 19:38:05 2019

Academic license - for non-commercial use only

Gurobi 8.1.0 (linux64, Python) logging started Sun Mar  3 19:40:32 2019

Academic license - for non-commercial use only

Gurobi 8.1.0 (linux64, Python) logging started Sun Mar  3 20:22:03 2019

Academic license - for non-commercial use only

Gurobi 8.1.0 (linux64, Python) logging started Sun Mar  3 20:23:02 2019

Academic license - for non-commercial use only

Gurobi 8.1.0 (linux64, Python) logging started Sun Mar  3 20:26:02 2019

Academic license - for non-commercial use only

Gurobi 8.1.0 (linux64, Python) logging started Sun Mar  3 20:27:21 2019

Academic license - for non-commercial use only

Gurobi 8.1.0 (linux64, Python) logging started Sun Mar  3 20:28:53 2019

Academic license - for non-commercial use only

Gurobi 8.1.0 (linux64, Python) logging started Sun Mar  3 20:29:15 2019

Academic license - for non-commercial use only

Gurobi 8.1.0 (linux64, Python) logging started Sun Mar  3 20:31:27 2019

Academic license - for non-commercial use only

Gurobi 8.1.0 (linux64, Python) logging started Mon Mar  4 11:14:10 2019

Academic license - for non-commercial use only

Gurobi 8.1.0 (linux64, Python) logging started Mon Mar  4 11:16:02 2019

Academic license - for non-commercial use only

Gurobi 8.1.0 (linux64, Python) logging started Mon Mar  4 11:26:38 2019

Academic license - for non-commercial use only

Gurobi 8.1.0 (linux64, Python) logging started Mon Mar  4 11:30:12 2019

Academic license - for non-commercial use only

Gurobi 8.1.0 (linux64, Python) logging started Mon Mar  4 11:33:00 2019

Academic license - for non-commercial use only

Gurobi 8.1.0 (linux64, Python) logging started Mon Mar  4 11:35:03 2019

Academic license - for non-commercial use only

Gurobi 8.1.0 (linux64, Python) logging started Mon Mar  4 11:46:10 2019

Academic license - for non-commercial use only

Gurobi 8.1.0 (linux64, Python) logging started Mon Mar  4 12:41:19 2019

Academic license - for non-commercial use only

Gurobi 8.1.0 (linux64, Python) logging started Sun Mar 10 20:50:54 2019

Academic license - for non-commercial use only

Gurobi 8.1.0 (linux64, Python) logging started Thu Mar 14 15:54:10 2019

Academic license - for non-commercial use only

Gurobi 8.1.0 (linux64, Python) logging started Thu Mar 14 15:57:08 2019

Academic license - for non-commercial use only

Gurobi 8.1.0 (linux64, Python) logging started Thu Mar 14 16:00:05 2019

Academic license - for non-commercial use only

Gurobi 8.1.0 (linux64, Python) logging started Thu Mar 14 16:05:00 2019

Academic license - for non-commercial use only

Gurobi 8.1.0 (linux64, Python) logging started Sun Mar 17 17:09:17 2019

Academic license - for non-commercial use only

Gurobi 8.1.0 (linux64, Python) logging started Sun Mar 17 17:31:38 2019

Academic license - for non-commercial use only

Gurobi 8.1.0 (linux64, Python) logging started Sun Mar 17 17:32:57 2019

Academic license - for non-commercial use only

Gurobi 8.1.0 (linux64, Python) logging started Sun Mar 17 17:44:30 2019

Academic license - for non-commercial use only

Gurobi 8.1.0 (linux64, Python) logging started Sun Mar 17 17:46:15 2019

Academic license - for non-commercial use only

Gurobi 8.1.0 (linux64, Python) logging started Sun Mar 17 18:03:12 2019

Academic license - for non-commercial use only

Gurobi 8.1.0 (linux64, Python) logging started Sun Mar 17 18:05:13 2019

Academic license - for non-commercial use only

Gurobi 8.1.0 (linux64, Python) logging started Sun Mar 17 18:05:38 2019

Academic license - for non-commercial use only

Gurobi 8.1.0 (linux64, Python) logging started Sun Mar 17 18:07:39 2019

Academic license - for non-commercial use only

Gurobi 8.1.0 (linux64, Python) logging started Sun Mar 17 18:08:17 2019

Academic license - for non-commercial use only

Gurobi 8.1.0 (linux64, Python) logging started Sun Mar 17 18:11:07 2019

Academic license - for non-commercial use only

Gurobi 8.1.0 (linux64, Python) logging started Sun Mar 17 18:21:34 2019

Academic license - for non-commercial use only

Gurobi 8.1.0 (linux64, Python) logging started Sun Mar 17 18:42:56 2019

Academic license - for non-commercial use only

Gurobi 8.1.0 (linux64, Python) logging started Sun Mar 17 18:44:05 2019

Academic license - for non-commercial use only

Gurobi 8.1.0 (linux64, Python) logging started Sun Mar 17 18:45:41 2019

Academic license - for non-commercial use only

Gurobi 8.1.0 (linux64, Python) logging started Sun Mar 17 18:46:44 2019

Academic license - for non-commercial use only

Gurobi 8.1.0 (linux64, Python) logging started Sun Mar 17 18:49:15 2019

Academic license - for non-commercial use only

Gurobi 8.1.0 (linux64, Python) logging started Mon Mar 18 12:23:17 2019

Academic license - for non-commercial use only

Gurobi 8.1.0 (linux64, Python) logging started Mon Mar 18 12:29:14 2019

Academic license - for non-commercial use only

Gurobi 8.1.0 (linux64, Python) logging started Mon Mar 18 12:32:23 2019

Academic license - for non-commercial use only

Gurobi 8.1.0 (linux64, Python) logging started Mon Mar 18 12:32:55 2019

Academic license - for non-commercial use only

Gurobi 8.1.0 (linux64, Python) logging started Mon Mar 18 12:56:09 2019

Academic license - for non-commercial use only

Gurobi 8.1.0 (linux64, Python) logging started Mon Mar 18 12:58:07 2019

Academic license - for non-commercial use only

Gurobi 8.1.0 (linux64, Python) logging started Mon Mar 18 12:58:36 2019

Academic license - for non-commercial use only

Gurobi 8.1.0 (linux64, Python) logging started Mon Mar 18 12:59:47 2019

Academic license - for non-commercial use only

Gurobi 8.1.0 (linux64, Python) logging started Mon Mar 18 13:05:36 2019

Academic license - for non-commercial use only

Gurobi 8.1.0 (linux64, Python) logging started Mon Mar 18 13:06:55 2019

Academic license - for non-commercial use only

Gurobi 8.1.0 (linux64, Python) logging started Mon Mar 18 13:17:51 2019

Academic license - for non-commercial use only

Gurobi 8.1.0 (linux64, Python) logging started Mon Mar 18 13:18:48 2019

Academic license - for non-commercial use only

Gurobi 8.1.0 (linux64, Python) logging started Mon Mar 18 13:19:40 2019

Academic license - for non-commercial use only

Gurobi 8.1.0 (linux64, Python) logging started Mon Mar 18 13:21:50 2019

Academic license - for non-commercial use only

Gurobi 8.1.0 (linux64, Python) logging started Mon Mar 18 13:26:23 2019

Academic license - for non-commercial use only

Gurobi 8.1.0 (linux64, Python) logging started Mon Mar 18 13:26:43 2019

Academic license - for non-commercial use only

Gurobi 8.1.0 (linux64, Python) logging started Mon Mar 18 13:33:52 2019

Academic license - for non-commercial use only

Gurobi 8.1.0 (linux64, Python) logging started Mon Mar 18 13:55:12 2019

Academic license - for non-commercial use only

Gurobi 8.1.0 (linux64, Python) logging started Mon Mar 18 13:55:45 2019

Academic license - for non-commercial use only

Gurobi 8.1.0 (linux64, Python) logging started Mon Mar 18 13:56:16 2019

Academic license - for non-commercial use only

Gurobi 8.1.0 (linux64, Python) logging started Mon Mar 18 13:59:03 2019

Academic license - for non-commercial use only

Gurobi 8.1.0 (linux64, Python) logging started Mon Mar 18 14:01:30 2019

Academic license - for non-commercial use only

Gurobi 8.1.0 (linux64, Python) logging started Mon Mar 18 14:06:41 2019

Academic license - for non-commercial use only

Gurobi 8.1.0 (linux64, Python) logging started Mon Mar 18 14:10:53 2019

Academic license - for non-commercial use only

Gurobi 8.1.0 (linux64, Python) logging started Mon Mar 18 14:17:18 2019

Academic license - for non-commercial use only

Gurobi 8.1.0 (linux64, Python) logging started Mon Mar 18 14:21:33 2019

Academic license - for non-commercial use only

Gurobi 8.1.0 (linux64, Python) logging started Mon Mar 18 14:23:12 2019

Academic license - for non-commercial use only

Gurobi 8.1.0 (linux64, Python) logging started Mon Mar 18 14:26:10 2019

Academic license - for non-commercial use only

Gurobi 8.1.0 (linux64, Python) logging started Mon Mar 18 14:28:27 2019

Academic license - for non-commercial use only

Gurobi 8.1.0 (linux64, Python) logging started Mon Mar 18 14:40:41 2019

Academic license - for non-commercial use only

Gurobi 8.1.0 (linux64, Python) logging started Mon Mar 18 14:42:58 2019

Academic license - for non-commercial use only

Gurobi 8.1.0 (linux64, Python) logging started Mon Mar 18 15:01:29 2019

Academic license - for non-commercial use only

Gurobi 8.1.0 (linux64, Python) logging started Mon Mar 18 15:14:58 2019

Academic license - for non-commercial use only

Gurobi 8.1.0 (linux64, Python) logging started Mon Mar 18 15:15:47 2019

Academic license - for non-commercial use only

Gurobi 8.1.0 (linux64, Python) logging started Mon Mar 18 15:16:08 2019

Academic license - for non-commercial use only

Gurobi 8.1.0 (linux64, Python) logging started Mon Mar 18 15:19:19 2019

Academic license - for non-commercial use only

Gurobi 8.1.0 (linux64, Python) logging started Mon Mar 18 15:22:10 2019

Academic license - for non-commercial use only

Gurobi 8.1.0 (linux64, Python) logging started Mon Mar 18 15:23:04 2019

Academic license - for non-commercial use only

Gurobi 8.1.0 (linux64, Python) logging started Mon Mar 18 15:23:44 2019

Academic license - for non-commercial use only

Gurobi 8.1.0 (linux64, Python) logging started Mon Mar 18 15:25:21 2019

Academic license - for non-commercial use only

Gurobi 8.1.0 (linux64, Python) logging started Mon Mar 18 15:25:58 2019

Academic license - for non-commercial use only

Gurobi 8.1.0 (linux64, Python) logging started Mon Mar 18 15:26:36 2019

Academic license - for non-commercial use only

Gurobi 8.1.0 (linux64, Python) logging started Mon Mar 18 15:27:04 2019

Academic license - for non-commercial use only

Gurobi 8.1.0 (linux64, Python) logging started Mon Mar 18 15:28:32 2019

Academic license - for non-commercial use only

Gurobi 8.1.0 (linux64, Python) logging started Mon Mar 18 15:30:30 2019

Academic license - for non-commercial use only

Gurobi 8.1.0 (linux64, Python) logging started Mon Mar 25 13:19:27 2019

Academic license - for non-commercial use only

Gurobi 8.1.0 (linux64, Python) logging started Mon Mar 25 13:19:56 2019

Academic license - for non-commercial use only

Gurobi 8.1.0 (linux64, Python) logging started Mon Mar 25 13:56:54 2019

Academic license - for non-commercial use only

Gurobi 8.1.0 (linux64, Python) logging started Mon Mar 25 13:58:52 2019

Academic license - for non-commercial use only

Gurobi 8.1.0 (linux64, Python) logging started Mon Mar 25 14:35:57 2019

Academic license - for non-commercial use only

Gurobi 8.1.0 (linux64, Python) logging started Mon Mar 25 14:36:59 2019

Academic license - for non-commercial use only

Gurobi 8.1.0 (linux64, Python) logging started Mon Mar 25 14:40:48 2019

Academic license - for non-commercial use only

Gurobi 8.1.0 (linux64, Python) logging started Mon Mar 25 14:41:17 2019

Academic license - for non-commercial use only

Gurobi 8.1.0 (linux64, Python) logging started Mon Mar 25 14:41:40 2019

Academic license - for non-commercial use only

Gurobi 8.1.0 (linux64, Python) logging started Mon Mar 25 14:42:45 2019

Academic license - for non-commercial use only

Gurobi 8.1.0 (linux64, Python) logging started Mon Mar 25 14:43:12 2019

Academic license - for non-commercial use only

Gurobi 8.1.0 (linux64, Python) logging started Mon Mar 25 14:45:07 2019

Academic license - for non-commercial use only

Gurobi 8.1.0 (linux64, Python) logging started Mon Mar 25 14:48:06 2019

Academic license - for non-commercial use only

Gurobi 8.1.0 (linux64, Python) logging started Mon Mar 25 14:54:31 2019

Academic license - for non-commercial use only

Gurobi 8.1.0 (linux64, Python) logging started Mon Mar 25 14:56:13 2019

Academic license - for non-commercial use only

Gurobi 8.1.0 (linux64, Python) logging started Mon Mar 25 14:56:54 2019

Academic license - for non-commercial use only

Gurobi 8.1.0 (linux64, Python) logging started Mon Mar 25 14:57:40 2019

Academic license - for non-commercial use only

Gurobi 8.1.0 (linux64, Python) logging started Mon Mar 25 15:01:24 2019

Academic license - for non-commercial use only

Gurobi 8.1.0 (linux64, Python) logging started Mon Mar 25 15:02:29 2019

Academic license - for non-commercial use only

Gurobi 8.1.0 (linux64, Python) logging started Mon Mar 25 15:03:13 2019

Academic license - for non-commercial use only

Gurobi 8.1.0 (linux64, Python) logging started Mon Mar 25 15:06:35 2019

Academic license - for non-commercial use only

Gurobi 8.1.0 (linux64, Python) logging started Mon Mar 25 15:08:14 2019

Academic license - for non-commercial use only

Gurobi 8.1.0 (linux64, Python) logging started Mon Mar 25 15:08:47 2019

Academic license - for non-commercial use only

Gurobi 8.1.0 (linux64, Python) logging started Mon Mar 25 15:09:07 2019

Academic license - for non-commercial use only

Gurobi 8.1.0 (linux64, Python) logging started Mon Mar 25 15:15:43 2019

Academic license - for non-commercial use only

Gurobi 8.1.0 (linux64, Python) logging started Mon Mar 25 15:18:48 2019

Academic license - for non-commercial use only

Gurobi 8.1.0 (linux64, Python) logging started Sun May 12 09:45:19 2019

Academic license - for non-commercial use only

Gurobi 8.1.0 (linux64, Python) logging started Sun May 12 09:46:01 2019

Academic license - for non-commercial use only

Gurobi 8.1.0 (linux64, Python) logging started Tue May 21 11:42:00 2019


--------------------------------------------
Warning: your license will expire in 8 days
--------------------------------------------

Academic license - for non-commercial use only

Gurobi 8.1.0 (linux64, Python) logging started Tue May 21 11:50:10 2019


--------------------------------------------
Warning: your license will expire in 8 days
--------------------------------------------

Academic license - for non-commercial use only

Gurobi 8.1.0 (linux64, Python) logging started Tue May 21 11:55:08 2019


--------------------------------------------
Warning: your license will expire in 8 days
--------------------------------------------

Academic license - for non-commercial use only

Gurobi 8.1.0 (linux64, Python) logging started Tue May 21 12:12:17 2019


--------------------------------------------
Warning: your license will expire in 8 days
--------------------------------------------

Academic license - for non-commercial use only

Gurobi 8.1.0 (linux64, Python) logging started Tue May 21 12:17:59 2019


--------------------------------------------
Warning: your license will expire in 8 days
--------------------------------------------

Academic license - for non-commercial use only

Gurobi 8.1.0 (linux64, Python) logging started Tue May 21 12:34:08 2019


--------------------------------------------
Warning: your license will expire in 8 days
--------------------------------------------

Academic license - for non-commercial use only

Gurobi 8.1.0 (linux64, Python) logging started Wed May 22 14:39:40 2019


--------------------------------------------
Warning: your license will expire in 7 days
--------------------------------------------

Academic license - for non-commercial use only

Gurobi 8.1.0 (linux64, Python) logging started Wed May 22 14:53:00 2019


--------------------------------------------
Warning: your license will expire in 7 days
--------------------------------------------

Academic license - for non-commercial use only

Gurobi 8.1.0 (linux64, Python) logging started Wed May 22 14:57:32 2019


--------------------------------------------
Warning: your license will expire in 7 days
--------------------------------------------

Academic license - for non-commercial use only

Gurobi 8.1.0 (linux64, Python) logging started Wed May 22 15:05:05 2019


--------------------------------------------
Warning: your license will expire in 7 days
--------------------------------------------

Academic license - for non-commercial use only

Gurobi 8.1.0 (linux64, Python) logging started Wed May 22 15:18:02 2019


--------------------------------------------
Warning: your license will expire in 7 days
--------------------------------------------

Academic license - for non-commercial use only

Gurobi 8.1.0 (linux64, Python) logging started Wed May 22 15:24:57 2019


--------------------------------------------
Warning: your license will expire in 7 days
--------------------------------------------

Academic license - for non-commercial use only

Gurobi 8.1.0 (linux64, Python) logging started Wed May 22 15:32:23 2019


--------------------------------------------
Warning: your license will expire in 7 days
--------------------------------------------

Academic license - for non-commercial use only

Gurobi 8.1.0 (linux64, Python) logging started Wed May 22 15:51:06 2019


--------------------------------------------
Warning: your license will expire in 7 days
--------------------------------------------

Academic license - for non-commercial use only

Gurobi 8.1.0 (linux64, Python) logging started Wed May 22 15:57:54 2019


--------------------------------------------
Warning: your license will expire in 7 days
--------------------------------------------

Academic license - for non-commercial use only

Gurobi 8.1.0 (linux64, Python) logging started Wed May 22 16:17:22 2019


--------------------------------------------
Warning: your license will expire in 7 days
--------------------------------------------

Academic license - for non-commercial use only
